42
100
69	1
68	3
67	2
65	1
64	2
63	2
62	1
60	6
59	6
58	5
57	1
56	2
55	2
54	1
53	2
52	1
51	1
50	1
49	2
48	3
47	2
46	1
44	3
43	4
42	2
41	3
40	1
39	2
37	2
35	4
34	3
32	5
31	1
29	3
28	2
27	2
26	1
25	3
24	2
23	5
22	2
21	2
